100 10
262 353
377 728
359 562
531 657
337 803
611 218
562 288
437 357
834 569
107 399
590 292
553 942
502 477
723 314
106 816
346 364
719 139
662 427
614 582
971 648
250 357
404 212
676 869
300 324
650 453
850 414
379 642
612 300
244 932
573 614
160 556
316 425
434 837
352 739
628 273
541 675
701 307
392 594
391 379
770 171
933 622
805 373
493 603
322 680
288 528
329 580
693 528
685 584
360 716
915 767
208 435
280 694
350 447
869 850
575 416
426 396
839 384
299 583
336 420
757 371
870 464
513 650
586 522
622 401
448 574
534 914
480 858
384 280
418 676
757 888
318 583
468 678
187 675
730 706
389 497
630 253
327 553
729 651
889 511
455 363
779 218
484 285
704 570
352 620
641 621
407 424
212 496
201 862
630 282
384 208
220 532
542 677
556 280
426 470
408 808
644 658
322 482
430 692
265 466
912 546
